Name: Desipramine
Formula: C18H22N2
MW: 266
PRECURSORMZ: 267.19
CAS#: 50-47-5
Comments: NIST Mass Spectrometry Data Center
Num peaks: 6
196.19 52.00
208.11 74.00
208.87 2.00
210.29 5.00
222.20 13.00
236.19 999.00

Name: Lamotrigine
DB#: HMDB0014695_2249938
InChIKey: PYZRQGJRPPTADH-UHFFFAOYSA-N
SMILES: NC1=NC(N)=C(N=N1)C1=C(Cl)C(Cl)=CC=C1
Formula: C9H7Cl2N5
ExactMass: 255.007850663
Precursor_type: [M+H]+
Spectrum_type: MS2
PrecursorMZ: 256.015676
Ion_mode: P
Collision_energy: 90
Splash: splash10-0kmi-0900000000-bb97e1aecda1747cbf29
DataSource: HMDB_experimental
Comments: source_file=HMDB0014695_ms_ms_spectrum_2249938_experimental.xml
Num Peaks: 34
58.04 20.81
68.0245 5.57
108.9839 6.65
115.0288 4.17
122.9998 16.56
123.9949 14.87
131.0605 10.12
132.9608 11.76
138.0104 9.31
144.9604 5.79
147.9949 3.96
150.0105 3.13
151.0057 6.77
151.0184 34.96
152.0136 34.3
156.9607 53.79
158.9763 49.8
159.9718 26.1
164.001 12.51
165.0215 19.35
166.0293 32.29
170.9638 20.07
171.9717 36.89
172.9668 100.0
173.9872 5.7
178.0171 4.77
179.0248 3.1
183.9718 27.87
184.9794 5.04
186.9824 29.08
194.9643 7.73
210.9825 42.17
211.9779 9.14
229.0041 3.96